Optimal - objective value 3.00000000
      0 x_0_0                    1                       1
      2 x_1_1                    1                       1
      5 x_2_2                    1                       1
      6 x_3_0                    1                       0
     12 x_4_2                    1                      -1
     17 x_5_2                    1                      -1
     23 x_6_2                    1                       0
     28 x_7_0                    1                       0
     37 x_8_1                    1                       0
     46 x_9_1                    1                       0
